c colouring generated by benchmark framework
p edge 128 2113
v 1 14
v 2 28
v 3 21
v 4 3
v 5 23
v 6 13
v 7 8
v 8 19
v 9 31
v 10 11
v 11 10
v 12 27
v 13 1
v 14 11
v 15 14
v 16 4
v 17 5
v 18 27
v 19 23
v 20 1
v 21 17
v 22 29
v 23 14
v 24 8
v 25 0
v 26 19
v 27 13
v 28 29
v 29 22
v 30 24
v 31 4
v 32 10
v 33 18
v 34 26
v 35 8
v 36 21
v 37 3
v 38 19
v 39 27
v 40 30
v 41 9
v 42 7
v 43 24
v 44 19
v 45 23
v 46 18
v 47 22
v 48 19
v 49 11
v 50 22
v 51 18
v 52 26
v 53 20
v 54 15
v 55 5
v 56 26
v 57 6
v 58 2
v 59 24
v 60 0
v 61 14
v 62 9
v 63 6
v 64 22
v 65 30
v 66 12
v 67 29
v 68 3
v 69 6
v 70 30
v 71 27
v 72 27
v 73 17
v 74 11
v 75 25
v 76 20
v 77 1
v 78 2
v 79 15
v 80 21
v 81 25
v 82 15
v 83 16
v 84 18
v 85 26
v 86 3
v 87 7
v 88 0
v 89 24
v 90 1
v 91 14
v 92 21
v 93 4
v 94 10
v 95 8
v 96 2
v 97 12
v 98 20
v 99 5
v 100 4
v 101 25
v 102 17
v 103 2
v 104 29
v 105 10
v 106 4
v 107 15
v 108 8
v 109 23
v 110 16
v 111 7
v 112 24
v 113 31
v 114 28
v 115 27
v 116 13
v 117 6
v 118 17
v 119 10
v 120 11
v 121 15
v 122 31
v 123 30
v 124 6
v 125 31
v 126 22
v 127 17
v 128 7
